50
0 9 1
1 6 78
2 4 17
3 4 25
4 1 10
5 1 26
6 2 68
7 2 22
8 7 8
9 5 5
10 3 9
11 0 10
12 9 93
13 10 36
14 7 103
15 8 30
16 0 100
17 3 117
18 6 29
19 3 74
20 0 96
21 4 39
22 8 94
23 4 77
24 0 72
25 4 129
26 2 42
27 6 97
28 1 90
29 1 65
30 8 108
31 9 100
32 4 33
33 10 78
34 7 22
35 5 75
36 3 110
37 10 38
38 7 62
39 5 46
40 1 113
41 5 80
42 6 4
43 6 104
44 10 102
45 5 38
46 10 116
47 5 108
48 1 9
49 2 5
